Route #1: 15 28 51
Route #2: 7 10 8 43 29 61 40 20
Route #3: 34 33 58 17 50 57 32 6
Route #4: 59 55 26 35 11 25 60 5 14 56
Route #5: 9 54 3 39 27 23 41 21 4 49 31
Route #6: 38 19 30 1 18 13 12 48 53
Route #7: 45 47 24 42 46
Route #8: 52 2 44 22 37 16 36
Cost 1297
Time 0.107975
